# Strimko Set 067
param n := 5;

# represent the different streams with integer 1..n
param streams: 1 2 3 4 5 :=
  1      1 1 1 2 3 
  2      1 2 2 2 3 
  3      1 2 4 5 3 
  4      5 4 5 4 3 
  5      4 5 5 4 3 
;

param num_placed := 5;
param placed: 1 2 3 :=
  1    1 3 4 
  2    1 4 1 
  3    3 3 2 
  4    3 5 3 
  5    5 4 5
;
